Minimize
  obj: x0 + x1 + x2 + x3 + x4 + x5

Subject To
  c0: x0 + x1 + x2 + x3 + x5 = 52
  c1: x0 + x1 + x2 + x5 = 45
  c2: x1 + x2 + x4 + x5 = 52
  c3: x2 + x5 = 22
  c4: x0 + x1 + x5 = 37
  c5: x0 + x2 + x4 + x5 = 39
  c6: x0 + x1 + x3 + x5 = 44
  c7: x0 + x1 + x2 = 31

Bounds
  x0 >= 0
  x1 >= 0
  x2 >= 0
  x3 >= 0
  x4 >= 0
  x5 >= 0

Generals
  x0 x1 x2 x3 x4 x5

End
